cluster_editing/exact/simple_reductions/graphs/exact123.gr
p cep 215 2070
1 25
1 27
1 30
1 38
1 39
1 44
1 46
1 47
1 49
1 51
1 54
1 55
1 60
1 64
1 66
1 67
1 70
1 71
1 72
1 73
1 77
1 82
1 88
1 92
1 95
1 97
1 98
1 106
1 115
1 119
1 121
1 139
1 143
1 159
1 166
1 168
1 169
1 170
1 177
1 178
1 181
1 182
1 184
1 195
1 203
1 205
1 211
1 213
2 7
2 17
2 20
2 21
2 22
2 28
2 32
2 35
2 36
2 50
2 61
2 69
2 76
2 79
2 89
2 93
2 94
2 102
2 105
2 107
2 122
2 126
2 135
2 137
2 145
2 150
2 158
2 160
2 167
2 185
2 186
2 187
2 189
2 194
2 197
2 200
2 202
2 204
3 16
3 34
3 188
3 210
4 11
4 15
4 43
4 57
4 84
4 103
4 116
4 144
4 153
4 198
5 30
5 38
5 46
5 47
5 54
5 55
5 70
5 72
5 73
5 97
5 177
5 181
5 184
6 91
6 179
7 12
7 17
7 20
7 21
7 22
7 28
7 32
7 36
7 50
7 61
7 69
7 76
7 79
7 89
7 93
7 94
7 102
7 105
7 107
7 122
7 126
7 135
7 145
7 150
7 158
7 160
7 167
7 185
7 186
7 189
7 194
7 197
7 200
7 202
7 204
7 214
8 90
9 41
9 42
9 48
9 53
9 58
9 81
9 87
9 118
9 124
9 127
9 129
9 134
9 140
9 141
9 142
9 151
9 155
9 156
9 164
9 173
9 183
9 190
9 212
10 61
10 79
10 86
10 135
10 150
10 167
10 208
11 15
11 43
11 57
11 84
11 116
11 144
11 153
11 198
12 21
12 79
12 202
12 214
13 45
13 74
13 114
13 123
13 138
13 148
13 199
14 15
14 18
14 57
14 78
14 80
14 83
14 99
14 103
14 113
14 128
14 153
14 154
14 162
14 191
15 43
15 57
15 78
15 83
15 84
15 113
15 116
15 120
15 128
15 144
15 153
15 191
15 198
16 34
16 110
16 188
16 210
17 20
17 28
17 32
17 36
17 69
17 76
17 79
17 89
17 93
17 94
17 102
17 105
17 107
17 122
17 135
17 145
17 150
17 158
17 160
17 185
17 186
17 189
17 194
17 197
17 200
17 204
18 57
18 78
18 80
18 83
18 99
18 103
18 113
18 128
18 149
18 153
18 154
18 162
18 191
20 22
20 28
20 32
20 36
20 50
20 61
20 69
20 76
20 79
20 89
20 93
20 102
20 105
20 107
20 122
20 126
20 135
20 137
20 145
20 158
20 160
20 167
20 185
20 186
20 194
20 197
20 200
20 204
21 28
21 32
21 61
21 69
21 79
21 93
21 102
21 145
21 158
21 160
21 200
21 202
21 204
21 214
22 28
22 32
22 69
22 79
22 89
22 102
22 105
22 107
22 135
22 158
22 160
22 167
22 194
22 200
22 204
23 27
23 46
23 49
23 54
23 64
23 77
23 106
23 119
23 159
23 168
23 178
23 211
25 27
25 30
25 38
25 39
25 44
25 46
25 47
25 49
25 51
25 54
25 55
25 60
25 64
25 66
25 67
25 70
25 71
25 72
25 73
25 77
25 82
25 88
25 92
25 95
25 97
25 98
25 106
25 115
25 119
25 121
25 139
25 143
25 159
25 166
25 168
25 169
25 170
25 177
25 178
25 181
25 182
25 184
25 195
25 203
25 205
25 211
25 213
27 30
27 38
27 39
27 44
27 46
27 47
27 49
27 51
27 52
27 54
27 55
27 60
27 64
27 66
27 67
27 70
27 71
27 72
27 73
27 77
27 82
27 92
27 97
27 98
27 106
27 115
27 119
27 121
27 139
27 143
27 159
27 166
27 168
27 169
27 170
27 178
27 181
27 182
27 184
27 195
27 203
27 205
27 211
27 213
28 32
28 36
28 50
28 61
28 69
28 76
28 79
28 89
28 93
28 94
28 102
28 105
28 107
28 122
28 126
28 135
28 137
28 145
28 150
28 158
28 160
28 167
28 185
28 186
28 187
28 189
28 194
28 197
28 200
28 202
28 204
29 122
29 161
29 174
30 38
30 46
30 47
30 49
30 51
30 52
30 54
30 55
30 64
30 66
30 67
30 70
30 71
30 72
30 73
30 77
30 82
30 92
30 97
30 98
30 106
30 115
30 119
30 121
30 139
30 143
30 159
30 166
30 169
30 170
30 177
30 178
30 180
30 181
30 182
30 184
30 195
30 203
30 205
30 211
30 213
31 146
32 36
32 50
32 61
32 69
32 76
32 79
32 89
32 93
32 94
32 102
32 105
32 107
32 122
32 126
32 135
32 137
32 145
32 150
32 158
32 160
32 167
32 185
32 186
32 187
32 189
32 194
32 197
32 200
32 202
32 204
33 109
34 110
34 188
34 210
35 36
35 50
35 61
35 69
35 79
35 89
35 93
35 122
35 126
35 135
35 186
35 187
35 200
36 50
36 61
36 69
36 76
36 79
36 89
36 93
36 94
36 102
36 105
36 107
36 122
36 126
36 135
36 137
36 145
36 158
36 160
36 167
36 185
36 186
36 187
36 189
36 194
36 197
36 200
36 202
36 204
38 46
38 47
38 49
38 51
38 52
38 54
38 55
38 64
38 66
38 67
38 70
38 71
38 72
38 73
38 77
38 82
38 92
38 97
38 98
38 106
38 115
38 119
38 121
38 139
38 143
38 159
38 166
38 169
38 170
38 177
38 178
38 181
38 182
38 184
38 195
38 203
38 205
38 211
38 213
39 49
39 51
39 64
39 77
39 92
39 119
39 121
39 139
39 159
39 203
39 211
40 175
41 42
41 48
41 53
41 81
41 87
41 118
41 124
41 127
41 129
41 134
41 140
41 141
41 142
41 151
41 155
41 156
41 164
41 212
42 48
42 53
42 81
42 87
42 118
42 124
42 127
42 129
42 134
42 140
42 141
42 142
42 151
42 155
42 156
42 164
42 190
42 212
43 57
43 84
43 116
43 144
43 153
43 198
44 47
44 49
44 51
44 67
44 71
44 82
44 98
44 119
44 121
44 182
44 195
44 203
44 211
45 74
45 114
45 123
45 138
45 148
45 199
46 47
46 49
46 51
46 54
46 55
46 60
46 64
46 66
46 67
46 70
46 71
46 72
46 73
46 77
46 82
46 88
46 95
46 97
46 98
46 106
46 115
46 119
46 121
46 139
46 159
46 166
46 168
46 169
46 170
46 177
46 178
46 181
46 182
46 184
46 195
46 203
46 205
46 211
46 213
47 51
47 54
47 55
47 64
47 66
47 67
47 70
47 71
47 72
47 73
47 77
47 82
47 88
47 92
47 97
47 98
47 106
47 115
47 121
47 139
47 143
47 159
47 168
47 170
47 178
47 181
47 182
47 184
47 195
47 203
47 205
47 211
48 53
48 58
48 81
48 87
48 118
48 124
48 127
48 129
48 134
48 140
48 141
48 142
48 151
48 155
48 156
48 164
48 173
48 183
48 190
48 212
49 51
49 54
49 55
49 64
49 66
49 67
49 70
49 71
49 72
49 73
49 77
49 82
49 92
49 97
49 98
49 106
49 115
49 119
49 121
49 139
49 143
49 159
49 169
49 170
49 178
49 181
49 182
49 184
49 195
49 203
49 205
49 211
49 213
50 59
50 61
50 69
50 76
50 79
50 89
50 93
50 94
50 102
50 105
50 107
50 122
50 126
50 135
50 145
50 150
50 158
50 160
50 167
50 185
50 186
50 189
50 194
50 197
50 200
50 202
50 204
51 52
51 54
51 55
51 60
51 64
51 66
51 67
51 70
51 71
51 72
51 73
51 77
51 82
51 92
51 95
51 97
51 98
51 106
51 115
51 119
51 121
51 139
51 143
51 159
51 166
51 168
51 169
51 170
51 177
51 178
51 181
51 182
51 184
51 195
51 203
51 205
51 211
51 213
52 54
52 55
52 70
52 72
52 97
52 115
52 159
52 170
52 178
52 181
52 184
53 58
53 81
53 87
53 118
53 124
53 127
53 129
53 134
53 140
53 141
53 142
53 151
53 155
53 156
53 164
53 173
53 183
53 190
53 212
54 55
54 64
54 66
54 67
54 70
54 71
54 72
54 73
54 77
54 82
54 92
54 97
54 98
54 106
54 115
54 119
54 121
54 139
54 143
54 159
54 166
54 169
54 170
54 177
54 178
54 181
54 182
54 184
54 195
54 203
54 205
54 211
54 212
54 213
55 64
55 66
55 67
55 70
55 71
55 72
55 73
55 77
55 82
55 88
55 92
55 96
55 97
55 98
55 106
55 108
55 115
55 119
55 121
55 139
55 143
55 159
55 166
55 169
55 170
55 177
55 178
55 181
55 182
55 184
55 195
55 203
55 205
55 209
55 211
55 213
57 78
57 80
57 83
57 84
57 99
57 103
57 113
57 116
57 120
57 128
57 153
57 154
57 162
57 191
58 81
58 118
58 142
58 151
58 155
58 173
58 183
58 212
59 61
59 89
59 122
59 145
59 150
59 167
59 185
59 189
60 73
60 92
60 95
60 97
60 98
60 106
60 115
60 121
60 159
60 169
60 170
60 181
60 184
60 203
61 69
61 79
61 89
61 93
61 94
61 102
61 105
61 122
61 126
61 135
61 145
61 150
61 158
61 160
61 167
61 185
61 186
61 189
61 194
61 197
61 200
61 202
61 204
61 208
62 147
63 75
63 104
64 66
64 67
64 70
64 71
64 72
64 73
64 77
64 82
64 92
64 97
64 98
64 106
64 115
64 119
64 121
64 139
64 143
64 159
64 166
64 168
64 169
64 170
64 178
64 181
64 182
64 184
64 195
64 203
64 205
64 211
64 213
66 67
66 70
66 72
66 77
66 82
66 97
66 98
66 106
66 108
66 115
66 119
66 121
66 139
66 143
66 159
66 166
66 170
66 178
66 181
66 184
66 195
66 203
66 205
66 209
66 211
66 213
67 70
67 71
67 72
67 77
67 82
67 92
67 97
67 98
67 106
67 115
67 119
67 121
67 139
67 159
67 168
67 169
67 170
67 178
67 181
67 182
67 184
67 195
67 203
67 211
67 213
69 76
69 79
69 89
69 93
69 94
69 102
69 105
69 107
69 122
69 126
69 135
69 145
69 150
69 158
69 160
69 167
69 185
69 186
69 189
69 194
69 197
69 200
69 202
69 204
70 71
70 72
70 73
70 77
70 82
70 92
70 97
70 98
70 106
70 115
70 119
70 121
70 139
70 143
70 159
70 166
70 169
70 170
70 177
70 178
70 180
70 181
70 182
70 184
70 195
70 203
70 205
70 211
70 213
71 72
71 77
71 82
71 92
71 97
71 98
71 106
71 115
71 119
71 121
71 139
71 159
71 168
71 169
71 170
71 178
71 181
71 182
71 184
71 195
71 203
71 211
71 213
72 73
72 77
72 82
72 92
72 97
72 98
72 106
72 115
72 119
72 121
72 139
72 143
72 159
72 166
72 169
72 170
72 177
72 178
72 180
72 181
72 182
72 184
72 195
72 203
72 205
72 211
72 213
73 88
73 97
73 106
73 115
73 121
73 143
73 159
73 166
73 169
73 170
73 177
73 178
73 181
73 184
73 195
73 203
73 205
73 213
74 114
74 123
74 138
74 148
74 199
75 104
75 131
76 79
76 89
76 93
76 94
76 102
76 105
76 107
76 122
76 135
76 137
76 145
76 150
76 158
76 160
76 185
76 186
76 189
76 194
76 197
76 200
76 204
77 82
77 92
77 97
77 98
77 106
77 115
77 119
77 121
77 139
77 159
77 166
77 169
77 170
77 178
77 181
77 182
77 184
77 195
77 203
77 211
77 213
78 80
78 83
78 84
78 99
78 103
78 113
78 128
78 149
78 153
78 154
78 162
78 191
79 89
79 93
79 94
79 102
79 105
79 107
79 122
79 126
79 135
79 145
79 150
79 158
79 160
79 161
79 167
79 185
79 186
79 189
79 194
79 197
79 200
79 202
79 204
79 208
79 214
80 83
80 99
80 113
80 128
80 153
80 154
80 191
81 87
81 118
81 124
81 127
81 129
81 134
81 140
81 141
81 142
81 151
81 155
81 156
81 164
81 173
81 183
81 190
81 212
82 92
82 98
82 106
82 115
82 119
82 121
82 139
82 143
82 159
82 168
82 169
82 170
82 178
82 181
82 182
82 184
82 195
82 203
82 211
82 213
83 99
83 103
83 120
83 128
83 149
83 153
83 154
83 162
83 191
84 99
84 116
84 144
84 153
84 191
84 198
86 208
87 118
87 124
87 127
87 129
87 134
87 140
87 141
87 142
87 151
87 155
87 156
87 164
87 212
88 143
88 181
88 205
89 93
89 94
89 102
89 105
89 107
89 122
89 126
89 135
89 145
89 150
89 158
89 160
89 161
89 167
89 185
89 186
89 189
89 194
89 197
89 200
89 202
89 204
91 179
92 97
92 98
92 106
92 115
92 119
92 121
92 139
92 159
92 166
92 169
92 170
92 178
92 181
92 182
92 184
92 195
92 203
92 211
92 213
93 94
93 102
93 105
93 107
93 122
93 126
93 135
93 137
93 145
93 150
93 158
93 160
93 161
93 167
93 185
93 186
93 189
93 194
93 197
93 200
93 202
93 204
94 102
94 105
94 107
94 122
94 126
94 135
94 145
94 150
94 158
94 160
94 167
94 185
94 186
94 189
94 194
94 197
94 200
94 202
94 204
96 180
96 181
97 98
97 106
97 108
97 115
97 119
97 121
97 139
97 143
97 159
97 166
97 169
97 170
97 177
97 178
97 181
97 182
97 184
97 195
97 203
97 205
97 209
97 213
98 106
98 115
98 119
98 121
98 139
98 159
98 169
98 170
98 178
98 181
98 182
98 184
98 195
98 203
98 205
98 211
98 213
99 103
99 113
99 120
99 128
99 153
99 154
99 191
100 163
101 196
102 105
102 107
102 122
102 126
102 135
102 145
102 158
102 160
102 167
102 185
102 186
102 194
102 197
102 200
102 204
103 113
103 120
103 128
103 149
103 153
103 162
103 191
104 131
105 107
105 122
105 126
105 135
105 145
105 150
105 158
105 160
105 167
105 185
105 186
105 189
105 194
105 197
105 200
105 202
105 204
106 108
106 115
106 119
106 121
106 139
106 143
106 159
106 166
106 169
106 170
106 178
106 181
106 182
106 184
106 195
106 203
106 205
106 209
106 211
106 213
107 135
107 137
107 145
107 158
107 160
107 185
107 186
107 189
107 194
107 197
107 200
107 204
108 143
108 159
108 181
108 184
108 195
108 209
110 210
113 120
113 128
113 153
113 162
113 191
114 123
114 138
114 148
114 199
115 119
115 121
115 139
115 143
115 159
115 166
115 169
115 170
115 178
115 181
115 182
115 184
115 195
115 203
115 205
115 211
115 213
116 144
116 153
116 191
116 198
117 157
118 124
118 127
118 129
118 134
118 140
118 141
118 142
118 151
118 155
118 156
118 164
118 173
118 183
118 190
118 212
119 121
119 139
119 159
119 166
119 169
119 170
119 178
119 181
119 182
119 184
119 195
119 203
119 211
119 213
120 128
120 153
121 139
121 143
121 159
121 166
121 168
121 169
121 170
121 177
121 178
121 181
121 182
121 184
121 195
121 203
121 205
121 211
121 213
122 126
122 135
122 145
122 150
122 158
122 160
122 161
122 167
122 174
122 185
122 186
122 189
122 194
122 197
122 200
122 202
122 204
123 138
123 148
123 199
124 127
124 129
124 134
124 140
124 141
124 142
124 151
124 155
124 156
124 164
124 173
124 181
124 183
124 190
124 212
126 135
126 145
126 150
126 158
126 160
126 167
126 185
126 186
126 189
126 194
126 197
126 200
126 204
127 129
127 134
127 140
127 141
127 142
127 151
127 155
127 156
127 164
127 190
127 212
128 149
128 153
128 154
128 162
128 191
129 134
129 140
129 141
129 142
129 151
129 155
129 156
129 164
129 173
129 190
129 212
130 193
134 140
134 141
134 142
134 151
134 155
134 156
134 164
134 190
134 212
135 145
135 150
135 158
135 160
135 167
135 185
135 186
135 189
135 194
135 197
135 200
135 202
135 204
135 208
136 191
137 145
137 158
137 160
137 186
137 194
137 200
137 204
138 148
138 199
139 159
139 166
139 169
139 170
139 178
139 181
139 182
139 184
139 195
139 203
139 211
139 213
140 141
140 142
140 151
140 155
140 156
140 164
140 190
140 212
141 142
141 151
141 155
141 156
141 164
141 190
141 212
142 151
142 155
142 156
142 164
142 173
142 183
142 190
142 212
143 159
143 170
143 178
143 181
143 182
143 184
143 195
143 203
143 205
143 209
144 198
145 150
145 158
145 160
145 167
145 185
145 186
145 187
145 189
145 194
145 197
145 200
145 202
145 204
148 199
149 153
149 162
149 191
150 158
150 160
150 161
150 167
150 185
150 189
150 194
150 197
150 204
150 208
151 155
151 156
151 164
151 173
151 183
151 190
151 212
153 154
153 162
153 191
154 191
155 156
155 164
155 173
155 183
155 190
155 212
156 164
156 173
156 183
156 190
156 212
158 160
158 167
158 185
158 186
158 187
158 189
158 194
158 197
158 200
158 202
158 204
159 166
159 169
159 170
159 178
159 181
159 182
159 184
159 195
159 203
159 205
159 209
159 211
159 213
160 167
160 185
160 186
160 187
160 189
160 194
160 197
160 200
160 202
160 204
161 167
161 174
164 190
164 212
166 169
166 170
166 178
166 181
166 182
166 184
166 195
166 203
166 213
167 185
167 186
167 189
167 194
167 197
167 200
167 202
167 204
167 208
168 182
168 203
168 211
169 170
169 178
169 181
169 182
169 184
169 195
169 203
169 205
169 211
169 213
170 178
170 181
170 182
170 184
170 195
170 203
170 205
170 211
170 213
173 183
173 190
173 212
177 181
177 195
178 181
178 182
178 184
178 195
178 203
178 205
178 211
178 213
181 182
181 184
181 190
181 195
181 203
181 205
181 209
181 211
181 212
181 213
182 184
182 195
182 203
182 211
182 213
183 190
183 212
184 195
184 203
184 205
184 209
184 211
184 213
185 186
185 189
185 194
185 197
185 200
185 204
186 187
186 189
186 194
186 197
186 200
186 202
186 204
187 200
187 204
188 210
189 194
189 197
189 200
189 204
190 212
194 197
194 200
194 202
194 204
195 203
195 205
195 209
195 211
195 213
197 200
197 202
197 204
200 202
200 204
202 204
202 214
203 205
203 211
203 213
205 213
211 213
