cluster_editing/exact/simple_reductions/graphs/exact123.gr.metis
215 2070
25 27 30 38 39 44 46 47 49 51 54 55 60 64 66 67 70 71 72 73 77 82 88 92 95 97 98 106 115 119 121 139 143 159 166 168 169 170 177 178 181 182 184 195 203 205 211 213 
7 17 20 21 22 28 32 35 36 50 61 69 76 79 89 93 94 102 105 107 122 126 135 137 145 150 158 160 167 185 186 187 189 194 197 200 202 204 
16 34 188 210 
11 15 43 57 84 103 116 144 153 198 
30 38 46 47 54 55 70 72 73 97 177 181 184 
91 179 
2 12 17 20 21 22 28 32 36 50 61 69 76 79 89 93 94 102 105 107 122 126 135 145 150 158 160 167 185 186 189 194 197 200 202 204 214 
90 
41 42 48 53 58 81 87 118 124 127 129 134 140 141 142 151 155 156 164 173 183 190 212 
61 79 86 135 150 167 208 
4 15 43 57 84 116 144 153 198 
7 21 79 202 214 
45 74 114 123 138 148 199 
15 18 57 78 80 83 99 103 113 128 153 154 162 191 
4 11 14 43 57 78 83 84 113 116 120 128 144 153 191 198 
3 34 110 188 210 
2 7 20 28 32 36 69 76 79 89 93 94 102 105 107 122 135 145 150 158 160 185 186 189 194 197 200 204 
14 57 78 80 83 99 103 113 128 149 153 154 162 191 

2 7 17 22 28 32 36 50 61 69 76 79 89 93 102 105 107 122 126 135 137 145 158 160 167 185 186 194 197 200 204 
2 7 12 28 32 61 69 79 93 102 145 158 160 200 202 204 214 
2 7 20 28 32 69 79 89 102 105 107 135 158 160 167 194 200 204 
27 46 49 54 64 77 106 119 159 168 178 211 

1 27 30 38 39 44 46 47 49 51 54 55 60 64 66 67 70 71 72 73 77 82 88 92 95 97 98 106 115 119 121 139 143 159 166 168 169 170 177 178 181 182 184 195 203 205 211 213 

1 23 25 30 38 39 44 46 47 49 51 52 54 55 60 64 66 67 70 71 72 73 77 82 92 97 98 106 115 119 121 139 143 159 166 168 169 170 178 181 182 184 195 203 205 211 213 
2 7 17 20 21 22 32 36 50 61 69 76 79 89 93 94 102 105 107 122 126 135 137 145 150 158 160 167 185 186 187 189 194 197 200 202 204 
122 161 174 
1 5 25 27 38 46 47 49 51 52 54 55 64 66 67 70 71 72 73 77 82 92 97 98 106 115 119 121 139 143 159 166 169 170 177 178 180 181 182 184 195 203 205 211 213 
146 
2 7 17 20 21 22 28 36 50 61 69 76 79 89 93 94 102 105 107 122 126 135 137 145 150 158 160 167 185 186 187 189 194 197 200 202 204 
109 
3 16 110 188 210 
2 36 50 61 69 79 89 93 122 126 135 186 187 200 
2 7 17 20 28 32 35 50 61 69 76 79 89 93 94 102 105 107 122 126 135 137 145 158 160 167 185 186 187 189 194 197 200 202 204 

1 5 25 27 30 46 47 49 51 52 54 55 64 66 67 70 71 72 73 77 82 92 97 98 106 115 119 121 139 143 159 166 169 170 177 178 181 182 184 195 203 205 211 213 
1 25 27 49 51 64 77 92 119 121 139 159 203 211 
175 
9 42 48 53 81 87 118 124 127 129 134 140 141 142 151 155 156 164 212 
9 41 48 53 81 87 118 124 127 129 134 140 141 142 151 155 156 164 190 212 
4 11 15 57 84 116 144 153 198 
1 25 27 47 49 51 67 71 82 98 119 121 182 195 203 211 
13 74 114 123 138 148 199 
1 5 23 25 27 30 38 47 49 51 54 55 60 64 66 67 70 71 72 73 77 82 88 95 97 98 106 115 119 121 139 159 166 168 169 170 177 178 181 182 184 195 203 205 211 213 
1 5 25 27 30 38 44 46 51 54 55 64 66 67 70 71 72 73 77 82 88 92 97 98 106 115 121 139 143 159 168 170 178 181 182 184 195 203 205 211 
9 41 42 53 58 81 87 118 124 127 129 134 140 141 142 151 155 156 164 173 183 190 212 
1 23 25 27 30 38 39 44 46 51 54 55 64 66 67 70 71 72 73 77 82 92 97 98 106 115 119 121 139 143 159 169 170 178 181 182 184 195 203 205 211 213 
2 7 20 28 32 35 36 59 61 69 76 79 89 93 94 102 105 107 122 126 135 145 150 158 160 167 185 186 189 194 197 200 202 204 
1 25 27 30 38 39 44 46 47 49 52 54 55 60 64 66 67 70 71 72 73 77 82 92 95 97 98 106 115 119 121 139 143 159 166 168 169 170 177 178 181 182 184 195 203 205 211 213 
27 30 38 51 54 55 70 72 97 115 159 170 178 181 184 
9 41 42 48 58 81 87 118 124 127 129 134 140 141 142 151 155 156 164 173 183 190 212 
1 5 23 25 27 30 38 46 47 49 51 52 55 64 66 67 70 71 72 73 77 82 92 97 98 106 115 119 121 139 143 159 166 169 170 177 178 181 182 184 195 203 205 211 212 213 
1 5 25 27 30 38 46 47 49 51 52 54 64 66 67 70 71 72 73 77 82 88 92 96 97 98 106 108 115 119 121 139 143 159 166 169 170 177 178 181 182 184 195 203 205 209 211 213 

4 11 14 15 18 43 78 80 83 84 99 103 113 116 120 128 153 154 162 191 
9 48 53 81 118 142 151 155 173 183 212 
50 61 89 122 145 150 167 185 189 
1 25 27 46 51 73 92 95 97 98 106 115 121 159 169 170 181 184 203 
2 7 10 20 21 28 32 35 36 50 59 69 79 89 93 94 102 105 122 126 135 145 150 158 160 167 185 186 189 194 197 200 202 204 208 
147 
75 104 
1 23 25 27 30 38 39 46 47 49 51 54 55 66 67 70 71 72 73 77 82 92 97 98 106 115 119 121 139 143 159 166 168 169 170 178 181 182 184 195 203 205 211 213 

1 25 27 30 38 46 47 49 51 54 55 64 67 70 72 77 82 97 98 106 108 115 119 121 139 143 159 166 170 178 181 184 195 203 205 209 211 213 
1 25 27 30 38 44 46 47 49 51 54 55 64 66 70 71 72 77 82 92 97 98 106 115 119 121 139 159 168 169 170 178 181 182 184 195 203 211 213 

2 7 17 20 21 22 28 32 35 36 50 61 76 79 89 93 94 102 105 107 122 126 135 145 150 158 160 167 185 186 189 194 197 200 202 204 
1 5 25 27 30 38 46 47 49 51 52 54 55 64 66 67 71 72 73 77 82 92 97 98 106 115 119 121 139 143 159 166 169 170 177 178 180 181 182 184 195 203 205 211 213 
1 25 27 30 38 44 46 47 49 51 54 55 64 67 70 72 77 82 92 97 98 106 115 119 121 139 159 168 169 170 178 181 182 184 195 203 211 213 
1 5 25 27 30 38 46 47 49 51 52 54 55 64 66 67 70 71 73 77 82 92 97 98 106 115 119 121 139 143 159 166 169 170 177 178 180 181 182 184 195 203 205 211 213 
1 5 25 27 30 38 46 47 49 51 54 55 60 64 70 72 88 97 106 115 121 143 159 166 169 170 177 178 181 184 195 203 205 213 
13 45 114 123 138 148 199 
63 104 131 
2 7 17 20 28 32 36 50 69 79 89 93 94 102 105 107 122 135 137 145 150 158 160 185 186 189 194 197 200 204 
1 23 25 27 30 38 39 46 47 49 51 54 55 64 66 67 70 71 72 82 92 97 98 106 115 119 121 139 159 166 169 170 178 181 182 184 195 203 211 213 
14 15 18 57 80 83 84 99 103 113 128 149 153 154 162 191 
2 7 10 12 17 20 21 22 28 32 35 36 50 61 69 76 89 93 94 102 105 107 122 126 135 145 150 158 160 161 167 185 186 189 194 197 200 202 204 208 214 
14 18 57 78 83 99 113 128 153 154 191 
9 41 42 48 53 58 87 118 124 127 129 134 140 141 142 151 155 156 164 173 183 190 212 
1 25 27 30 38 44 46 47 49 51 54 55 64 66 67 70 71 72 77 92 98 106 115 119 121 139 143 159 168 169 170 178 181 182 184 195 203 211 213 
14 15 18 57 78 80 99 103 120 128 149 153 154 162 191 
4 11 15 43 57 78 99 116 144 153 191 198 

10 208 
9 41 42 48 53 81 118 124 127 129 134 140 141 142 151 155 156 164 212 
1 25 46 47 55 73 143 181 205 
2 7 17 20 22 28 32 35 36 50 59 61 69 76 79 93 94 102 105 107 122 126 135 145 150 158 160 161 167 185 186 189 194 197 200 202 204 
8 
6 179 
1 25 27 30 38 39 47 49 51 54 55 60 64 67 70 71 72 77 82 97 98 106 115 119 121 139 159 166 169 170 178 181 182 184 195 203 211 213 
2 7 17 20 21 28 32 35 36 50 61 69 76 79 89 94 102 105 107 122 126 135 137 145 150 158 160 161 167 185 186 189 194 197 200 202 204 
2 7 17 28 32 36 50 61 69 76 79 89 93 102 105 107 122 126 135 145 150 158 160 167 185 186 189 194 197 200 202 204 
1 25 46 51 60 
55 180 181 
1 5 25 27 30 38 46 47 49 51 52 54 55 60 64 66 67 70 71 72 73 77 92 98 106 108 115 119 121 139 143 159 166 169 170 177 178 181 182 184 195 203 205 209 213 
1 25 27 30 38 44 46 47 49 51 54 55 60 64 66 67 70 71 72 77 82 92 97 106 115 119 121 139 159 169 170 178 181 182 184 195 203 205 211 213 
14 18 57 78 80 83 84 103 113 120 128 153 154 191 
163 
196 
2 7 17 20 21 22 28 32 36 50 61 69 76 79 89 93 94 105 107 122 126 135 145 158 160 167 185 186 194 197 200 204 
4 14 18 57 78 83 99 113 120 128 149 153 162 191 
63 75 131 
2 7 17 20 22 28 32 36 50 61 69 76 79 89 93 94 102 107 122 126 135 145 150 158 160 167 185 186 189 194 197 200 202 204 
1 23 25 27 30 38 46 47 49 51 54 55 60 64 66 67 70 71 72 73 77 82 92 97 98 108 115 119 121 139 143 159 166 169 170 178 181 182 184 195 203 205 209 211 213 
2 7 17 20 22 28 32 36 50 69 76 79 89 93 94 102 105 135 137 145 158 160 185 186 189 194 197 200 204 
55 66 97 106 143 159 181 184 195 209 
33 
16 34 210 


14 15 18 57 78 80 99 103 120 128 153 162 191 
13 45 74 123 138 148 199 
1 25 27 30 38 46 47 49 51 52 54 55 60 64 66 67 70 71 72 73 77 82 92 97 98 106 119 121 139 143 159 166 169 170 178 181 182 184 195 203 205 211 213 
4 11 15 43 57 84 144 153 191 198 
157 
9 41 42 48 53 58 81 87 124 127 129 134 140 141 142 151 155 156 164 173 183 190 212 
1 23 25 27 30 38 39 44 46 49 51 54 55 64 66 67 70 71 72 77 82 92 97 98 106 115 121 139 159 166 169 170 178 181 182 184 195 203 211 213 
15 57 83 99 103 113 128 153 
1 25 27 30 38 39 44 46 47 49 51 54 55 60 64 66 67 70 71 72 73 77 82 92 97 98 106 115 119 139 143 159 166 168 169 170 177 178 181 182 184 195 203 205 211 213 
2 7 17 20 28 29 32 35 36 50 59 61 69 76 79 89 93 94 102 105 126 135 145 150 158 160 161 167 174 185 186 189 194 197 200 202 204 
13 45 74 114 138 148 199 
9 41 42 48 53 81 87 118 127 129 134 140 141 142 151 155 156 164 173 181 183 190 212 

2 7 20 28 32 35 36 50 61 69 79 89 93 94 102 105 122 135 145 150 158 160 167 185 186 189 194 197 200 204 
9 41 42 48 53 81 87 118 124 129 134 140 141 142 151 155 156 164 190 212 
14 15 18 57 78 80 83 99 103 113 120 149 153 154 162 191 
9 41 42 48 53 81 87 118 124 127 134 140 141 142 151 155 156 164 173 190 212 
193 
75 104 


9 41 42 48 53 81 87 118 124 127 129 140 141 142 151 155 156 164 190 212 
2 7 10 17 20 22 28 32 35 36 50 61 69 76 79 89 93 94 102 105 107 122 126 145 150 158 160 167 185 186 189 194 197 200 202 204 208 
191 
2 20 28 32 36 76 93 107 145 158 160 186 194 200 204 
13 45 74 114 123 148 199 
1 25 27 30 38 39 46 47 49 51 54 55 64 66 67 70 71 72 77 82 92 97 98 106 115 119 121 159 166 169 170 178 181 182 184 195 203 211 213 
9 41 42 48 53 81 87 118 124 127 129 134 141 142 151 155 156 164 190 212 
9 41 42 48 53 81 87 118 124 127 129 134 140 142 151 155 156 164 190 212 
9 41 42 48 53 58 81 87 118 124 127 129 134 140 141 151 155 156 164 173 183 190 212 
1 25 27 30 38 47 49 51 54 55 64 66 70 72 73 82 88 97 106 108 115 121 159 170 178 181 182 184 195 203 205 209 
4 11 15 43 84 116 198 
2 7 17 20 21 28 32 36 50 59 61 69 76 79 89 93 94 102 105 107 122 126 135 137 150 158 160 167 185 186 187 189 194 197 200 202 204 
31 
62 
13 45 74 114 123 138 199 
18 78 83 103 128 153 162 191 
2 7 10 17 28 32 50 59 61 69 76 79 89 93 94 105 122 126 135 145 158 160 161 167 185 189 194 197 204 208 
9 41 42 48 53 58 81 87 118 124 127 129 134 140 141 142 155 156 164 173 183 190 212 

4 11 14 15 18 43 57 78 80 83 84 99 103 113 116 120 128 149 154 162 191 
14 18 57 78 80 83 99 128 153 191 
9 41 42 48 53 58 81 87 118 124 127 129 134 140 141 142 151 156 164 173 183 190 212 
9 41 42 48 53 81 87 118 124 127 129 134 140 141 142 151 155 164 173 183 190 212 
117 
2 7 17 20 21 22 28 32 36 50 61 69 76 79 89 93 94 102 105 107 122 126 135 137 145 150 160 167 185 186 187 189 194 197 200 202 204 
1 23 25 27 30 38 39 46 47 49 51 52 54 55 60 64 66 67 70 71 72 73 77 82 92 97 98 106 108 115 119 121 139 143 166 169 170 178 181 182 184 195 203 205 209 211 213 
2 7 17 20 21 22 28 32 36 50 61 69 76 79 89 93 94 102 105 107 122 126 135 137 145 150 158 167 185 186 187 189 194 197 200 202 204 
29 79 89 93 122 150 167 174 
14 18 57 78 83 103 113 128 149 153 
100 
9 41 42 48 53 81 87 118 124 127 129 134 140 141 142 151 155 156 190 212 

1 25 27 30 38 46 51 54 55 64 66 70 72 73 77 92 97 106 115 119 121 139 159 169 170 178 181 182 184 195 203 213 
2 7 10 20 22 28 32 36 50 59 61 69 79 89 93 94 102 105 122 126 135 145 150 158 160 161 185 186 189 194 197 200 202 204 208 
1 23 25 27 46 47 51 64 67 71 82 121 182 203 211 
1 25 27 30 38 46 49 51 54 55 60 64 67 70 71 72 73 77 82 92 97 98 106 115 119 121 139 159 166 170 178 181 182 184 195 203 205 211 213 
1 25 27 30 38 46 47 49 51 52 54 55 60 64 66 67 70 71 72 73 77 82 92 97 98 106 115 119 121 139 143 159 166 169 178 181 182 184 195 203 205 211 213 


9 48 53 58 81 118 124 129 142 151 155 156 183 190 212 
29 122 161 
40 

1 5 25 30 38 46 51 54 55 70 72 73 97 121 181 195 
1 23 25 27 30 38 46 47 49 51 52 54 55 64 66 67 70 71 72 73 77 82 92 97 98 106 115 119 121 139 143 159 166 169 170 181 182 184 195 203 205 211 213 
6 91 
30 70 72 96 
1 5 25 27 30 38 46 47 49 51 52 54 55 60 64 66 67 70 71 72 73 77 82 88 92 96 97 98 106 108 115 119 121 124 139 143 159 166 169 170 177 178 182 184 190 195 203 205 209 211 212 213 
1 25 27 30 38 44 46 47 49 51 54 55 64 67 70 71 72 77 82 92 97 98 106 115 119 121 139 143 159 166 168 169 170 178 181 184 195 203 211 213 
9 48 53 58 81 118 124 142 151 155 156 173 190 212 
1 5 25 27 30 38 46 47 49 51 52 54 55 60 64 66 67 70 71 72 73 77 82 92 97 98 106 108 115 119 121 139 143 159 166 169 170 178 181 182 195 203 205 209 211 213 
2 7 17 20 28 32 36 50 59 61 69 76 79 89 93 94 102 105 107 122 126 135 145 150 158 160 167 186 189 194 197 200 204 
2 7 17 20 28 32 35 36 50 61 69 76 79 89 93 94 102 105 107 122 126 135 137 145 158 160 167 185 187 189 194 197 200 202 204 
2 28 32 35 36 145 158 160 186 200 204 
3 16 34 210 
2 7 17 28 32 36 50 59 61 69 76 79 89 93 94 105 107 122 126 135 145 150 158 160 167 185 186 194 197 200 204 
9 42 48 53 81 118 124 127 129 134 140 141 142 151 155 156 164 173 181 183 212 
14 15 18 57 78 80 83 84 99 103 113 116 128 136 149 153 154 

130 
2 7 17 20 22 28 32 36 50 61 69 76 79 89 93 94 102 105 107 122 126 135 137 145 150 158 160 167 185 186 189 197 200 202 204 
1 25 27 30 38 44 46 47 49 51 54 55 64 66 67 70 71 72 73 77 82 92 97 98 106 108 115 119 121 139 143 159 166 169 170 177 178 181 182 184 203 205 209 211 213 
101 
2 7 17 20 28 32 36 50 61 69 76 79 89 93 94 102 105 107 122 126 135 145 150 158 160 167 185 186 189 194 200 202 204 
4 11 15 43 84 116 144 
13 45 74 114 123 138 148 
2 7 17 20 21 22 28 32 35 36 50 61 69 76 79 89 93 94 102 105 107 122 126 135 137 145 158 160 167 185 186 187 189 194 197 202 204 

2 7 12 21 28 32 36 50 61 69 79 89 93 94 105 122 135 145 158 160 167 186 194 197 200 204 214 
1 25 27 30 38 39 44 46 47 49 51 54 55 60 64 66 67 70 71 72 73 77 82 92 97 98 106 115 119 121 139 143 159 166 168 169 170 178 181 182 184 195 205 211 213 
2 7 17 20 21 22 28 32 36 50 61 69 76 79 89 93 94 102 105 107 122 126 135 137 145 150 158 160 167 185 186 187 189 194 197 200 202 
1 25 27 30 38 46 47 49 51 54 55 64 66 70 72 73 88 97 98 106 115 121 143 159 169 170 178 181 184 195 203 213 


10 61 79 86 135 150 167 
55 66 97 106 108 143 159 181 184 195 
3 16 34 110 188 
1 23 25 27 30 38 39 44 46 47 49 51 54 55 64 66 67 70 71 72 77 82 92 98 106 115 119 121 139 159 168 169 170 178 181 182 184 195 203 213 
9 41 42 48 53 54 58 81 87 118 124 127 129 134 140 141 142 151 155 156 164 173 181 183 190 
1 25 27 30 38 46 49 51 54 55 64 66 67 70 71 72 73 77 82 92 97 98 106 115 119 121 139 159 166 169 170 178 181 182 184 195 203 205 211 
7 12 21 79 202 

